benchmarks/bfuzz0/31281263951186728168385449752903323852.smt2
(set-logic QF_FP)
(declare-const x0 (_ FloatingPoint 8 24))
(declare-const x1 (_ FloatingPoint 8 24))
(declare-const x2 (_ FloatingPoint 8 24))
(declare-const x3 (_ FloatingPoint 8 24))
(declare-const x4 (_ FloatingPoint 8 24))
(declare-const x5 (_ FloatingPoint 8 24))
(declare-const x6 (_ FloatingPoint 8 24))
(declare-const x7 (_ FloatingPoint 8 24))
(declare-const x8 (_ FloatingPoint 8 24))
(declare-const x9 (_ FloatingPoint 8 24))
(assert (fp.lt (fp.sub RNE x0 x9) (fp.mul RNE x9 x2)))
(assert (fp.lt (fp.mul RNE x1 x4) (fp.sub RNE x8 x8)))
(assert (fp.geq (fp.mul RNE x2 x1) (fp.mul RNE x1 x1)))
(assert (fp.eq (fp.neg x2) (fp.mul RNE x1 x3)))
(assert (fp.leq (fp.sub RNE x3 x9) (fp.neg x9)))
(assert (fp.lt (fp.neg x3) (fp.add RNE x0 x1)))
(assert (fp.geq (fp.sub RNE x5 x0) (fp.add RNE x5 x0)))
(assert (fp.geq (fp.neg x7) (fp.mul RNE x9 x0)))
(assert (fp.eq (fp.neg x3) (fp.sub RNE x6 x5)))
(assert (fp.gt (fp.neg x7) (fp.neg x4)))
(assert (fp.geq (fp.add RNE x0 x1) (fp.add RNE x0 x8)))
(assert (fp.lt (fp.sub RNE x2 x8) (fp.neg x5)))
(assert (fp.gt (fp.sub RNE x9 x4) (fp.sub RNE x5 x6)))
(check-sat)
