db/data/31281263951186728168385449752903323852.z3.out
sat
-------------------
11.931040755
